decision_x1=[0,4];
decision_x2=[0,4];
decision_x3=[0,4];
decision_x4=[0,4];
decision_x5=[0,4];
random_y1=[0,4];
constraint_x2_x1=[
0,1,3.5|
0,2,2.8|
0,3,4.4|
0,4,5.5|
1,0,7.3|
1,2,9.3|
1,3,5.6|
1,4,8|
2,0,7|
2,1,5.4|
2,3,1.5|
2,4,2.7|
3,0,1.7|
3,1,9.8|
3,2,7.1|
3,4,8|
4,0,4.4|
4,1,3.5|
4,2,9.1|
4,3,4.7|
];
constraint_x3_x1=[
0,1,5.1|
0,2,3.4|
0,3,9|
0,4,4.6|
1,0,6.5|
1,2,2.2|
1,3,3.9|
1,4,7.8|
2,0,8.7|
2,1,6.6|
2,3,5.6|
2,4,8.5|
3,0,8.9|
3,1,5.8|
3,2,6.7|
3,4,7.9|
4,0,1.8|
4,1,8|
4,2,2.6|
4,3,10|
];
constraint_x3_x2=[
0,1,0.5|
0,2,5.4|
0,3,4.9|
0,4,2.2|
1,0,6.2|
1,2,2.9|
1,3,10|
1,4,6|
2,0,9.6|
2,1,2.4|
2,3,6.4|
2,4,5|
3,0,2|
3,1,2.4|
3,2,8.8|
3,4,6.3|
4,0,2.7|
4,1,4.1|
4,2,1|
4,3,6.5|
];
constraint_x4_x3=[
0,1,7.1|
0,2,0.19|
0,3,8|
0,4,3.6|
1,0,4.6|
1,2,9.9|
1,3,8.5|
1,4,9.8|
2,0,0.62|
2,1,6.5|
2,3,0.67|
2,4,3.1|
3,0,7.8|
3,1,4.3|
3,2,1|
3,4,6|
4,0,1.6|
4,1,5.3|
4,2,6|
4,3,0.39|
];
constraint_x5_x1=[
0,1,8.6|
0,2,4.9|
0,3,0.081|
0,4,9.9|
1,0,7.6|
1,2,6.4|
1,3,1.8|
1,4,6.5|
2,0,0.19|
2,1,3.3|
2,3,4.1|
2,4,9.6|
3,0,9.7|
3,1,3|
3,2,7.9|
3,4,7.1|
4,0,0.94|
4,1,4.2|
4,2,5.1|
4,3,2.1|
];
constraint_x1_y1=[
0,0,6.6|
0,1,4.3|
0,2,2.6|
0,3,8.1|
0,4,3.8|
1,0,9.9|
1,1,5.1|
1,2,0.1|
1,3,0.47|
1,4,9.5|
2,0,0.17|
2,1,9.3|
2,2,6.6|
2,3,7|
2,4,5.6|
3,0,4|
3,1,5.6|
3,2,8|
3,3,5.8|
3,4,9|
4,0,9.7|
4,1,5.4|
4,2,1|
4,3,5.3|
4,4,1.7|
];
initial_distribution_y1=[0.22,0.18,0.11,0.21,0.28];
transition_y1=[
0.27,0.18,0.17,0.35,0.03|
0.29,0.071,0.1,0.027,0.51|
0.32,0.16,0.014,0.27,0.24|
0.14,0.16,0.084,0.34,0.27|
0.34,0.065,0.27,0.16,0.16|
];
